c max 130  131  136  137  138  139  140  141  170  171  172  181  182  183  184  185  186  187  188  189  193  194  198  199 0
c ind 545  546  549  550  553  554  557  558  561  562  565  566  569  570  573  574  577  578  581  582  585  586  589  592  593  596  597  600  601  604  605  608  609  612  615  616  618  619  620 0
c This is a CNF SAT formula in the DIMACS CNF format,
c produced with the bc2cnf translator by Tommi Junttila;
c see http://users.ics.aalto.fi/tjunttil/circuits/index.html
c phi_Gamma_det <-> 1
c phi_Gamma <-> 1
c phi_T_feature_det <-> 1
c phi_T_transitions <-> 1
c phi_T_transitions_consistency <-> 1
c phi_T <-> 1
c phi_sim_leaves <-> 1
c phi_sim_transition <-> 1
c phi_sim <-> 1
c FORMULA <-> 1
c pi_1 <-> 2
c pi_0 <-> 76
c pi_approved_0 <-> 106
c tau_1_3_approved_1 <-> 130
c tau_1_3_approved_0 <-> 131
c tau_1_2_approved_1 <-> 136
c tau_1_2_approved_0 <-> 137
c tau_1_1_approved_1 <-> 138
c tau_1_1_approved_0 <-> 139
c tau_1_0_approved_1 <-> 140
c tau_1_0_approved_0 <-> 141
c tau_0_3_approved_1 <-> 170
c tau_0_3_approved_0 <-> 171
c tau_0_3_1 <-> 172
c tau_0_2_approved_1 <-> 181
c tau_0_2_approved_0 <-> 182
c tau_0_2_1 <-> 183
c tau_0_1_approved_1 <-> 184
c tau_0_1_approved_0 <-> 185
c tau_0_1_1 <-> 186
c tau_0_0_approved_1 <-> 187
c tau_0_0_approved_0 <-> 188
c tau_0_0_1 <-> 189
c lam_1_monthly_income <-> 193
c lam_1_age <-> 194
c lam_0_monthly_income <-> 198
c lam_0_age <-> 199
c phi_Gamma_val <-> 543
c monthly_income_P640900 <-> 545
c age_P4500 <-> 546
c monthly_income_P965500 <-> 549
c age_P6300 <-> 550
c monthly_income_P936100 <-> 553
c age_P3600 <-> 554
c monthly_income_P819000 <-> 557
c age_P7600 <-> 558
c monthly_income_P180100 <-> 561
c age_P7900 <-> 562
c monthly_income_P367100 <-> 565
c age_P7400 <-> 566
c monthly_income_P903000 <-> 569
c age_P7500 <-> 570
c monthly_income_P802300 <-> 573
c age_P7300 <-> 574
c monthly_income_P447000 <-> 577
c age_P3200 <-> 578
c monthly_income_P843600 <-> 581
c age_P6900 <-> 582
c monthly_income_P343400 <-> 585
c age_P5800 <-> 586
c monthly_income_P624700 <-> 589
c monthly_income_P329700 <-> 592
c age_P3300 <-> 593
c monthly_income_P241600 <-> 596
c age_P6000 <-> 597
c monthly_income_P247600 <-> 600
c age_P4400 <-> 601
c monthly_income_P541700 <-> 604
c age_P7000 <-> 605
c monthly_income_P164900 <-> 608
c age_P3700 <-> 609
c monthly_income_P313000 <-> 612
c monthly_income_P374500 <-> 615
c age_P4300 <-> 616
c pi_approved_1 <-> 618
c approved_P100 <-> 618
c monthly_income_P511900 <-> 619
c age_P3100 <-> 620
p cnf 620 1713
1 0
2 -3 0
2 -12 0
-2 12 3 0
-3 4 0
-3 56 0
3 -56 -4 0
-4 5 0
-4 193 0
4 -193 -5 0
5 -6 0
5 -60 0
-5 60 6 0
6 -7 0
6 -31 0
-6 31 7 0
7 -8 0
7 -62 0
-7 62 8 0
8 -9 0
8 -33 0
-8 33 9 0
9 -10 0
9 -39 0
-9 39 10 0
10 -11 0
10 -41 0
-10 41 11 0
11 -43 0
11 -45 0
-11 45 43 0
12 -13 0
12 -25 0
-12 25 13 0
-13 14 0
-13 16 0
13 -16 -14 0
-14 15 0
-14 -141 0
14 141 -15 0
15 140 0
15 -618 0
-15 618 -140 0
-16 17 0
-16 193 0
16 -193 -17 0
17 -18 0
17 -35 0
-17 35 18 0
18 -19 0
18 -37 0
-18 37 19 0
19 -20 0
19 -64 0
-19 64 20 0
20 -21 0
20 -54 0
-20 54 21 0
21 -22 0
21 -66 0
-21 66 22 0
22 -23 0
22 -47 0
-22 47 23 0
23 -24 0
23 -68 0
-23 68 24 0
24 -48 0
24 -69 0
-24 69 48 0
25 -26 0
25 -49 0
-25 49 26 0
-26 27 0
-26 29 0
26 -29 -27 0
-27 28 0
-27 -131 0
27 131 -28 0
28 130 0
28 -618 0
-28 618 -130 0
-29 30 0
-29 194 0
29 -194 -30 0
30 -31 0
30 -32 0
-30 32 31 0
-31 549 0
-31 550 0
31 -550 -549 0
32 -33 0
32 -34 0
-32 34 33 0
-33 557 0
-33 558 0
33 -558 -557 0
34 -35 0
34 -36 0
-34 36 35 0
-35 561 0
-35 562 0
35 -562 -561 0
36 -37 0
36 -38 0
-36 38 37 0
-37 565 0
-37 566 0
37 -566 -565 0
38 -39 0
38 -40 0
-38 40 39 0
-39 569 0
-39 570 0
39 -570 -569 0
40 -41 0
40 -42 0
-40 42 41 0
-41 573 0
-41 574 0
41 -574 -573 0
42 -43 0
42 -44 0
-42 44 43 0
-43 581 0
-43 582 0
43 -582 -581 0
44 -45 0
44 -46 0
-44 46 45 0
-45 589 0
-45 597 0
45 -597 -589 0
46 -47 0
46 -48 0
-46 48 47 0
-47 596 0
-47 597 0
47 -597 -596 0
-48 604 0
-48 605 0
48 -605 -604 0
49 -50 0
49 -55 0
-49 55 50 0
-50 51 0
-50 53 0
50 -53 -51 0
-51 52 0
-51 -137 0
51 137 -52 0
52 136 0
52 -618 0
-52 618 -136 0
-53 54 0
-53 194 0
53 -194 -54 0
-54 585 0
-54 586 0
54 -586 -585 0
-55 56 0
-55 58 0
55 -58 -56 0
-56 57 0
-56 -139 0
56 139 -57 0
57 138 0
57 -618 0
-57 618 -138 0
-58 59 0
-58 194 0
58 -194 -59 0
59 -60 0
59 -61 0
-59 61 60 0
-60 545 0
-60 546 0
60 -546 -545 0
61 -62 0
61 -63 0
-61 63 62 0
-62 553 0
-62 554 0
62 -554 -553 0
63 -64 0
63 -65 0
-63 65 64 0
-64 577 0
-64 578 0
64 -578 -577 0
65 -66 0
65 -67 0
-65 67 66 0
-66 592 0
-66 593 0
66 -593 -592 0
67 -68 0
67 -69 0
-67 69 68 0
-68 600 0
-68 601 0
68 -601 -600 0
69 -70 0
69 -71 0
-69 71 70 0
-70 608 0
-70 609 0
70 -609 -608 0
71 -72 0
71 -73 0
-71 73 72 0
-72 612 0
-72 616 0
72 -616 -612 0
73 -74 0
73 -75 0
-73 75 74 0
-74 615 0
-74 616 0
74 -616 -615 0
-75 619 0
-75 620 0
75 -620 -619 0
76 -77 0
76 -79 0
-76 79 77 0
76 0
-77 78 0
-77 101 0
77 -101 -78 0
-78 5 0
-78 198 0
78 -198 -5 0
79 -80 0
79 -86 0
-79 86 80 0
-80 81 0
-80 85 0
80 -85 -81 0
-81 82 0
-81 83 0
81 -83 -82 0
82 187 0
82 -618 0
-82 618 -187 0
-83 -188 0
-83 84 0
83 -84 188 0
84 -2 0
84 189 0
-84 -189 2 0
-85 17 0
-85 198 0
85 -198 -17 0
86 -87 0
86 -93 0
-86 93 87 0
-87 88 0
-87 92 0
87 -92 -88 0
-88 89 0
-88 90 0
88 -90 -89 0
89 170 0
89 -618 0
-89 618 -170 0
-90 -171 0
-90 91 0
90 -91 171 0
91 -2 0
91 172 0
-91 -172 2 0
-92 30 0
-92 199 0
92 -199 -30 0
93 -94 0
93 -100 0
-93 100 94 0
-94 95 0
-94 99 0
94 -99 -95 0
-95 96 0
-95 97 0
95 -97 -96 0
96 181 0
96 -618 0
-96 618 -181 0
-97 -182 0
-97 98 0
97 -98 182 0
98 -2 0
98 183 0
-98 -183 2 0
-99 54 0
-99 199 0
99 -199 -54 0
-100 101 0
-100 105 0
100 -105 -101 0
-101 102 0
-101 103 0
101 -103 -102 0
102 184 0
102 -618 0
-102 618 -184 0
-103 -185 0
-103 104 0
103 -104 185 0
104 -2 0
104 186 0
-104 -186 2 0
-105 59 0
-105 199 0
105 -199 -59 0
-106 0
107 193 0
107 -108 0
-107 108 -193 0
107 0
-108 -130 0
-108 109 0
108 -109 130 0
-109 -131 0
-109 110 0
109 -110 131 0
-110 -136 0
-110 -137 0
110 137 136 0
111 198 0
111 -112 0
-111 112 -198 0
111 0
-112 -170 0
-112 113 0
112 -113 170 0
-113 -171 0
-113 114 0
113 -114 171 0
-114 -172 0
-114 115 0
114 -115 172 0
-115 -181 0
-115 116 0
115 -116 181 0
-116 -182 0
-116 -183 0
116 183 182 0
117 193 0
117 -118 0
-117 118 -193 0
117 0
-118 119 0
-118 122 0
118 -122 -119 0
119 -120 0
119 -121 0
-119 121 120 0
-120 -139 0
-120 138 0
120 -138 139 0
-121 -138 0
-121 139 0
121 -139 138 0
122 -123 0
122 -124 0
-122 124 123 0
-123 -141 0
-123 140 0
123 -140 141 0
-124 -140 0
-124 141 0
124 -141 140 0
125 194 0
125 -126 0
-125 126 -194 0
125 0
-126 127 0
-126 132 0
126 -132 -127 0
127 -128 0
127 -129 0
-127 129 128 0
-128 -131 0
-128 130 0
128 -130 131 0
-129 -130 0
-129 131 0
129 -131 130 0
-132 118 0
-132 133 0
132 -133 -118 0
133 -134 0
133 -135 0
-133 135 134 0
-134 -137 0
-134 136 0
134 -136 137 0
-135 -136 0
-135 137 0
135 -137 136 0
142 198 0
142 -143 0
-142 143 -198 0
142 0
-143 144 0
-143 152 0
143 -152 -144 0
144 -145 0
144 -150 0
-144 150 145 0
145 -146 0
145 -148 0
-145 148 146 0
-146 147 0
-146 184 0
146 -184 -147 0
-147 -185 0
-147 -186 0
147 186 185 0
-148 149 0
-148 185 0
148 -185 -149 0
-149 -184 0
-149 -186 0
149 186 184 0
-150 151 0
-150 186 0
150 -186 -151 0
-151 -184 0
-151 -185 0
151 185 184 0
152 -153 0
152 -158 0
-152 158 153 0
153 -154 0
153 -156 0
-153 156 154 0
-154 155 0
-154 187 0
154 -187 -155 0
-155 -188 0
-155 -189 0
155 189 188 0
-156 157 0
-156 188 0
156 -188 -157 0
-157 -187 0
-157 -189 0
157 189 187 0
-158 159 0
-158 189 0
158 -189 -159 0
-159 -187 0
-159 -188 0
159 188 187 0
160 199 0
160 -161 0
-160 161 -199 0
160 0
-161 162 0
-161 173 0
161 -173 -162 0
162 -163 0
162 -168 0
-162 168 163 0
163 -164 0
163 -166 0
-163 166 164 0
-164 165 0
-164 170 0
164 -170 -165 0
-165 -171 0
-165 -172 0
165 172 171 0
-166 167 0
-166 171 0
166 -171 -167 0
-167 -170 0
-167 -172 0
167 172 170 0
-168 169 0
-168 172 0
168 -172 -169 0
-169 -170 0
-169 -171 0
169 171 170 0
-173 143 0
-173 174 0
173 -174 -143 0
174 -175 0
174 -179 0
-174 179 175 0
175 -176 0
175 -177 0
-175 177 176 0
-176 116 0
-176 181 0
176 -181 -116 0
-177 178 0
-177 182 0
177 -182 -178 0
-178 -181 0
-178 -183 0
178 183 181 0
-179 180 0
-179 183 0
179 -183 -180 0
-180 -181 0
-180 -182 0
180 182 181 0
190 -191 0
190 -192 0
-190 192 191 0
190 0
-191 -194 0
-191 193 0
191 -193 194 0
-192 -193 0
-192 194 0
192 -194 193 0
195 -196 0
195 -197 0
-195 197 196 0
195 0
-196 -199 0
-196 198 0
196 -198 199 0
-197 -198 0
-197 199 0
197 -199 198 0
200 549 0
200 545 0
-200 -545 -549 0
200 0
201 553 0
201 -202 0
-201 202 -553 0
201 0
-202 -549 0
-202 -545 0
202 545 549 0
203 557 0
203 -204 0
-203 204 -557 0
203 0
-204 -545 0
-204 205 0
204 -205 545 0
-205 -549 0
-205 -553 0
205 553 549 0
206 561 0
206 -207 0
-206 207 -561 0
206 0
-207 -545 0
-207 208 0
207 -208 545 0
-208 -549 0
-208 209 0
208 -209 549 0
-209 -553 0
-209 -557 0
209 557 553 0
210 565 0
210 -211 0
-210 211 -565 0
210 0
-211 -545 0
-211 212 0
211 -212 545 0
-212 -549 0
-212 213 0
212 -213 549 0
-213 -553 0
-213 214 0
213 -214 553 0
-214 -557 0
-214 -561 0
214 561 557 0
215 569 0
215 -216 0
-215 216 -569 0
215 0
-216 -545 0
-216 217 0
216 -217 545 0
-217 -549 0
-217 218 0
217 -218 549 0
-218 -553 0
-218 219 0
218 -219 553 0
-219 -557 0
-219 220 0
219 -220 557 0
-220 -561 0
-220 -565 0
220 565 561 0
221 573 0
221 -222 0
-221 222 -573 0
221 0
-222 -545 0
-222 223 0
222 -223 545 0
-223 -549 0
-223 224 0
223 -224 549 0
-224 -553 0
-224 225 0
224 -225 553 0
-225 -557 0
-225 226 0
225 -226 557 0
-226 -561 0
-226 227 0
226 -227 561 0
-227 -565 0
-227 -569 0
227 569 565 0
228 577 0
228 -229 0
-228 229 -577 0
228 0
-229 -545 0
-229 230 0
229 -230 545 0
-230 -549 0
-230 231 0
230 -231 549 0
-231 -553 0
-231 232 0
231 -232 553 0
-232 -557 0
-232 233 0
232 -233 557 0
-233 -561 0
-233 234 0
233 -234 561 0
-234 -565 0
-234 235 0
234 -235 565 0
-235 -569 0
-235 -573 0
235 573 569 0
236 581 0
236 -237 0
-236 237 -581 0
236 0
-237 -545 0
-237 238 0
237 -238 545 0
-238 -549 0
-238 239 0
238 -239 549 0
-239 -553 0
-239 240 0
239 -240 553 0
-240 -557 0
-240 241 0
240 -241 557 0
-241 -561 0
-241 242 0
241 -242 561 0
-242 -565 0
-242 243 0
242 -243 565 0
-243 -569 0
-243 244 0
243 -244 569 0
-244 -573 0
-244 -577 0
244 577 573 0
245 585 0
245 -246 0
-245 246 -585 0
245 0
-246 -545 0
-246 247 0
246 -247 545 0
-247 -549 0
-247 248 0
247 -248 549 0
-248 -553 0
-248 249 0
248 -249 553 0
-249 -557 0
-249 250 0
249 -250 557 0
-250 -561 0
-250 251 0
250 -251 561 0
-251 -565 0
-251 252 0
251 -252 565 0
-252 -569 0
-252 253 0
252 -253 569 0
-253 -573 0
-253 254 0
253 -254 573 0
-254 -577 0
-254 -581 0
254 581 577 0
255 589 0
255 -256 0
-255 256 -589 0
255 0
-256 -545 0
-256 257 0
256 -257 545 0
-257 -549 0
-257 258 0
257 -258 549 0
-258 -553 0
-258 259 0
258 -259 553 0
-259 -557 0
-259 260 0
259 -260 557 0
-260 -561 0
-260 261 0
260 -261 561 0
-261 -565 0
-261 262 0
261 -262 565 0
-262 -569 0
-262 263 0
262 -263 569 0
-263 -573 0
-263 264 0
263 -264 573 0
-264 -577 0
-264 265 0
264 -265 577 0
-265 -581 0
-265 -585 0
265 585 581 0
266 592 0
266 -267 0
-266 267 -592 0
266 0
-267 -545 0
-267 268 0
267 -268 545 0
-268 -549 0
-268 269 0
268 -269 549 0
-269 -553 0
-269 270 0
269 -270 553 0
-270 -557 0
-270 271 0
270 -271 557 0
-271 -561 0
-271 272 0
271 -272 561 0
-272 -565 0
-272 273 0
272 -273 565 0
-273 -569 0
-273 274 0
273 -274 569 0
-274 -573 0
-274 275 0
274 -275 573 0
-275 -577 0
-275 276 0
275 -276 577 0
-276 -581 0
-276 277 0
276 -277 581 0
-277 -585 0
-277 -589 0
277 589 585 0
278 596 0
278 -279 0
-278 279 -596 0
278 0
-279 -545 0
-279 280 0
279 -280 545 0
-280 -549 0
-280 281 0
280 -281 549 0
-281 -553 0
-281 282 0
281 -282 553 0
-282 -557 0
-282 283 0
282 -283 557 0
-283 -561 0
-283 284 0
283 -284 561 0
-284 -565 0
-284 285 0
284 -285 565 0
-285 -569 0
-285 286 0
285 -286 569 0
-286 -573 0
-286 287 0
286 -287 573 0
-287 -577 0
-287 288 0
287 -288 577 0
-288 -581 0
-288 289 0
288 -289 581 0
-289 -585 0
-289 290 0
289 -290 585 0
-290 -589 0
-290 -592 0
290 592 589 0
291 600 0
291 -292 0
-291 292 -600 0
291 0
-292 -545 0
-292 293 0
292 -293 545 0
-293 -549 0
-293 294 0
293 -294 549 0
-294 -553 0
-294 295 0
294 -295 553 0
-295 -557 0
-295 296 0
295 -296 557 0
-296 -561 0
-296 297 0
296 -297 561 0
-297 -565 0
-297 298 0
297 -298 565 0
-298 -569 0
-298 299 0
298 -299 569 0
-299 -573 0
-299 300 0
299 -300 573 0
-300 -577 0
-300 301 0
300 -301 577 0
-301 -581 0
-301 302 0
301 -302 581 0
-302 -585 0
-302 303 0
302 -303 585 0
-303 -589 0
-303 304 0
303 -304 589 0
-304 -592 0
-304 -596 0
304 596 592 0
305 604 0
305 -306 0
-305 306 -604 0
305 0
-306 -545 0
-306 307 0
306 -307 545 0
-307 -549 0
-307 308 0
307 -308 549 0
-308 -553 0
-308 309 0
308 -309 553 0
-309 -557 0
-309 310 0
309 -310 557 0
-310 -561 0
-310 311 0
310 -311 561 0
-311 -565 0
-311 312 0
311 -312 565 0
-312 -569 0
-312 313 0
312 -313 569 0
-313 -573 0
-313 314 0
313 -314 573 0
-314 -577 0
-314 315 0
314 -315 577 0
-315 -581 0
-315 316 0
315 -316 581 0
-316 -585 0
-316 317 0
316 -317 585 0
-317 -589 0
-317 318 0
317 -318 589 0
-318 -592 0
-318 319 0
318 -319 592 0
-319 -596 0
-319 -600 0
319 600 596 0
320 608 0
320 -321 0
-320 321 -608 0
320 0
-321 -545 0
-321 322 0
321 -322 545 0
-322 -549 0
-322 323 0
322 -323 549 0
-323 -553 0
-323 324 0
323 -324 553 0
-324 -557 0
-324 325 0
324 -325 557 0
-325 -561 0
-325 326 0
325 -326 561 0
-326 -565 0
-326 327 0
326 -327 565 0
-327 -569 0
-327 328 0
327 -328 569 0
-328 -573 0
-328 329 0
328 -329 573 0
-329 -577 0
-329 330 0
329 -330 577 0
-330 -581 0
-330 331 0
330 -331 581 0
-331 -585 0
-331 332 0
331 -332 585 0
-332 -589 0
-332 333 0
332 -333 589 0
-333 -592 0
-333 334 0
333 -334 592 0
-334 -596 0
-334 335 0
334 -335 596 0
-335 -600 0
-335 -604 0
335 604 600 0
336 612 0
336 -337 0
-336 337 -612 0
336 0
-337 -545 0
-337 338 0
337 -338 545 0
-338 -549 0
-338 339 0
338 -339 549 0
-339 -553 0
-339 340 0
339 -340 553 0
-340 -557 0
-340 341 0
340 -341 557 0
-341 -561 0
-341 342 0
341 -342 561 0
-342 -565 0
-342 343 0
342 -343 565 0
-343 -569 0
-343 344 0
343 -344 569 0
-344 -573 0
-344 345 0
344 -345 573 0
-345 -577 0
-345 346 0
345 -346 577 0
-346 -581 0
-346 347 0
346 -347 581 0
-347 -585 0
-347 348 0
347 -348 585 0
-348 -589 0
-348 349 0
348 -349 589 0
-349 -592 0
-349 350 0
349 -350 592 0
-350 -596 0
-350 351 0
350 -351 596 0
-351 -600 0
-351 352 0
351 -352 600 0
-352 -604 0
-352 -608 0
352 608 604 0
353 615 0
353 -354 0
-353 354 -615 0
353 0
-354 -545 0
-354 355 0
354 -355 545 0
-355 -549 0
-355 356 0
355 -356 549 0
-356 -553 0
-356 357 0
356 -357 553 0
-357 -557 0
-357 358 0
357 -358 557 0
-358 -561 0
-358 359 0
358 -359 561 0
-359 -565 0
-359 360 0
359 -360 565 0
-360 -569 0
-360 361 0
360 -361 569 0
-361 -573 0
-361 362 0
361 -362 573 0
-362 -577 0
-362 363 0
362 -363 577 0
-363 -581 0
-363 364 0
363 -364 581 0
-364 -585 0
-364 365 0
364 -365 585 0
-365 -589 0
-365 366 0
365 -366 589 0
-366 -592 0
-366 367 0
366 -367 592 0
-367 -596 0
-367 368 0
367 -368 596 0
-368 -600 0
-368 369 0
368 -369 600 0
-369 -604 0
-369 370 0
369 -370 604 0
-370 -608 0
-370 -612 0
370 612 608 0
371 619 0
371 -372 0
-371 372 -619 0
371 0
-372 -545 0
-372 373 0
372 -373 545 0
-373 -549 0
-373 374 0
373 -374 549 0
-374 -553 0
-374 375 0
374 -375 553 0
-375 -557 0
-375 376 0
375 -376 557 0
-376 -561 0
-376 377 0
376 -377 561 0
-377 -565 0
-377 378 0
377 -378 565 0
-378 -569 0
-378 379 0
378 -379 569 0
-379 -573 0
-379 380 0
379 -380 573 0
-380 -577 0
-380 381 0
380 -381 577 0
-381 -581 0
-381 382 0
381 -382 581 0
-382 -585 0
-382 383 0
382 -383 585 0
-383 -589 0
-383 384 0
383 -384 589 0
-384 -592 0
-384 385 0
384 -385 592 0
-385 -596 0
-385 386 0
385 -386 596 0
-386 -600 0
-386 387 0
386 -387 600 0
-387 -604 0
-387 388 0
387 -388 604 0
-388 -608 0
-388 389 0
388 -389 608 0
-389 -612 0
-389 -615 0
389 615 612 0
390 550 0
390 546 0
-390 -546 -550 0
390 0
391 554 0
391 -392 0
-391 392 -554 0
391 0
-392 -550 0
-392 -546 0
392 546 550 0
393 558 0
393 -394 0
-393 394 -558 0
393 0
-394 -546 0
-394 395 0
394 -395 546 0
-395 -550 0
-395 -554 0
395 554 550 0
396 562 0
396 -397 0
-396 397 -562 0
396 0
-397 -546 0
-397 398 0
397 -398 546 0
-398 -550 0
-398 399 0
398 -399 550 0
-399 -554 0
-399 -558 0
399 558 554 0
400 566 0
400 -401 0
-400 401 -566 0
400 0
-401 -546 0
-401 402 0
401 -402 546 0
-402 -550 0
-402 403 0
402 -403 550 0
-403 -554 0
-403 404 0
403 -404 554 0
-404 -558 0
-404 -562 0
404 562 558 0
405 570 0
405 -406 0
-405 406 -570 0
405 0
-406 -546 0
-406 407 0
406 -407 546 0
-407 -550 0
-407 408 0
407 -408 550 0
-408 -554 0
-408 409 0
408 -409 554 0
-409 -558 0
-409 410 0
409 -410 558 0
-410 -562 0
-410 -566 0
410 566 562 0
411 574 0
411 -412 0
-411 412 -574 0
411 0
-412 -546 0
-412 413 0
412 -413 546 0
-413 -550 0
-413 414 0
413 -414 550 0
-414 -554 0
-414 415 0
414 -415 554 0
-415 -558 0
-415 416 0
415 -416 558 0
-416 -562 0
-416 417 0
416 -417 562 0
-417 -566 0
-417 -570 0
417 570 566 0
418 578 0
418 -419 0
-418 419 -578 0
418 0
-419 -546 0
-419 420 0
419 -420 546 0
-420 -550 0
-420 421 0
420 -421 550 0
-421 -554 0
-421 422 0
421 -422 554 0
-422 -558 0
-422 423 0
422 -423 558 0
-423 -562 0
-423 424 0
423 -424 562 0
-424 -566 0
-424 425 0
424 -425 566 0
-425 -570 0
-425 -574 0
425 574 570 0
426 582 0
426 -427 0
-426 427 -582 0
426 0
-427 -546 0
-427 428 0
427 -428 546 0
-428 -550 0
-428 429 0
428 -429 550 0
-429 -554 0
-429 430 0
429 -430 554 0
-430 -558 0
-430 431 0
430 -431 558 0
-431 -562 0
-431 432 0
431 -432 562 0
-432 -566 0
-432 433 0
432 -433 566 0
-433 -570 0
-433 434 0
433 -434 570 0
-434 -574 0
-434 -578 0
434 578 574 0
435 586 0
435 -436 0
-435 436 -586 0
435 0
-436 -546 0
-436 437 0
436 -437 546 0
-437 -550 0
-437 438 0
437 -438 550 0
-438 -554 0
-438 439 0
438 -439 554 0
-439 -558 0
-439 440 0
439 -440 558 0
-440 -562 0
-440 441 0
440 -441 562 0
-441 -566 0
-441 442 0
441 -442 566 0
-442 -570 0
-442 443 0
442 -443 570 0
-443 -574 0
-443 444 0
443 -444 574 0
-444 -578 0
-444 -582 0
444 582 578 0
445 593 0
445 -446 0
-445 446 -593 0
445 0
-446 -546 0
-446 447 0
446 -447 546 0
-447 -550 0
-447 448 0
447 -448 550 0
-448 -554 0
-448 449 0
448 -449 554 0
-449 -558 0
-449 450 0
449 -450 558 0
-450 -562 0
-450 451 0
450 -451 562 0
-451 -566 0
-451 452 0
451 -452 566 0
-452 -570 0
-452 453 0
452 -453 570 0
-453 -574 0
-453 454 0
453 -454 574 0
-454 -578 0
-454 455 0
454 -455 578 0
-455 -582 0
-455 -586 0
455 586 582 0
456 597 0
456 -457 0
-456 457 -597 0
456 0
-457 -546 0
-457 458 0
457 -458 546 0
-458 -550 0
-458 459 0
458 -459 550 0
-459 -554 0
-459 460 0
459 -460 554 0
-460 -558 0
-460 461 0
460 -461 558 0
-461 -562 0
-461 462 0
461 -462 562 0
-462 -566 0
-462 463 0
462 -463 566 0
-463 -570 0
-463 464 0
463 -464 570 0
-464 -574 0
-464 465 0
464 -465 574 0
-465 -578 0
-465 466 0
465 -466 578 0
-466 -582 0
-466 467 0
466 -467 582 0
-467 -586 0
-467 -593 0
467 593 586 0
468 601 0
468 -469 0
-468 469 -601 0
468 0
-469 -546 0
-469 470 0
469 -470 546 0
-470 -550 0
-470 471 0
470 -471 550 0
-471 -554 0
-471 472 0
471 -472 554 0
-472 -558 0
-472 473 0
472 -473 558 0
-473 -562 0
-473 474 0
473 -474 562 0
-474 -566 0
-474 475 0
474 -475 566 0
-475 -570 0
-475 476 0
475 -476 570 0
-476 -574 0
-476 477 0
476 -477 574 0
-477 -578 0
-477 478 0
477 -478 578 0
-478 -582 0
-478 479 0
478 -479 582 0
-479 -586 0
-479 480 0
479 -480 586 0
-480 -593 0
-480 -597 0
480 597 593 0
481 605 0
481 -482 0
-481 482 -605 0
481 0
-482 -546 0
-482 483 0
482 -483 546 0
-483 -550 0
-483 484 0
483 -484 550 0
-484 -554 0
-484 485 0
484 -485 554 0
-485 -558 0
-485 486 0
485 -486 558 0
-486 -562 0
-486 487 0
486 -487 562 0
-487 -566 0
-487 488 0
487 -488 566 0
-488 -570 0
-488 489 0
488 -489 570 0
-489 -574 0
-489 490 0
489 -490 574 0
-490 -578 0
-490 491 0
490 -491 578 0
-491 -582 0
-491 492 0
491 -492 582 0
-492 -586 0
-492 493 0
492 -493 586 0
-493 -593 0
-493 494 0
493 -494 593 0
-494 -597 0
-494 -601 0
494 601 597 0
495 609 0
495 -496 0
-495 496 -609 0
495 0
-496 -546 0
-496 497 0
496 -497 546 0
-497 -550 0
-497 498 0
497 -498 550 0
-498 -554 0
-498 499 0
498 -499 554 0
-499 -558 0
-499 500 0
499 -500 558 0
-500 -562 0
-500 501 0
500 -501 562 0
-501 -566 0
-501 502 0
501 -502 566 0
-502 -570 0
-502 503 0
502 -503 570 0
-503 -574 0
-503 504 0
503 -504 574 0
-504 -578 0
-504 505 0
504 -505 578 0
-505 -582 0
-505 506 0
505 -506 582 0
-506 -586 0
-506 507 0
506 -507 586 0
-507 -593 0
-507 508 0
507 -508 593 0
-508 -597 0
-508 509 0
508 -509 597 0
-509 -601 0
-509 -605 0
509 605 601 0
510 616 0
510 -511 0
-510 511 -616 0
510 0
-511 -546 0
-511 512 0
511 -512 546 0
-512 -550 0
-512 513 0
512 -513 550 0
-513 -554 0
-513 514 0
513 -514 554 0
-514 -558 0
-514 515 0
514 -515 558 0
-515 -562 0
-515 516 0
515 -516 562 0
-516 -566 0
-516 517 0
516 -517 566 0
-517 -570 0
-517 518 0
517 -518 570 0
-518 -574 0
-518 519 0
518 -519 574 0
-519 -578 0
-519 520 0
519 -520 578 0
-520 -582 0
-520 521 0
520 -521 582 0
-521 -586 0
-521 522 0
521 -522 586 0
-522 -593 0
-522 523 0
522 -523 593 0
-523 -597 0
-523 524 0
523 -524 597 0
-524 -601 0
-524 525 0
524 -525 601 0
-525 -605 0
-525 -609 0
525 609 605 0
526 620 0
526 -527 0
-526 527 -620 0
526 0
-527 -546 0
-527 528 0
527 -528 546 0
-528 -550 0
-528 529 0
528 -529 550 0
-529 -554 0
-529 530 0
529 -530 554 0
-530 -558 0
-530 531 0
530 -531 558 0
-531 -562 0
-531 532 0
531 -532 562 0
-532 -566 0
-532 533 0
532 -533 566 0
-533 -570 0
-533 534 0
533 -534 570 0
-534 -574 0
-534 535 0
534 -535 574 0
-535 -578 0
-535 536 0
535 -536 578 0
-536 -582 0
-536 537 0
536 -537 582 0
-537 -586 0
-537 538 0
537 -538 586 0
-538 -593 0
-538 539 0
538 -539 593 0
-539 -597 0
-539 540 0
539 -540 597 0
-540 -601 0
-540 541 0
540 -541 601 0
-541 -605 0
-541 542 0
541 -542 605 0
-542 -609 0
-542 -616 0
542 616 609 0
543 -544 0
543 -547 0
-543 547 544 0
543 0
-544 60 0
-544 618 0
544 -618 -60 0
547 -548 0
547 -551 0
-547 551 548 0
-548 31 0
-548 618 0
548 -618 -31 0
551 -552 0
551 -555 0
-551 555 552 0
-552 62 0
-552 618 0
552 -618 -62 0
555 -556 0
555 -559 0
-555 559 556 0
-556 33 0
-556 618 0
556 -618 -33 0
559 -560 0
559 -563 0
-559 563 560 0
-560 35 0
-560 618 0
560 -618 -35 0
563 -564 0
563 -567 0
-563 567 564 0
-564 37 0
-564 618 0
564 -618 -37 0
567 -568 0
567 -571 0
-567 571 568 0
-568 39 0
-568 618 0
568 -618 -39 0
571 -572 0
571 -575 0
-571 575 572 0
-572 41 0
-572 618 0
572 -618 -41 0
575 -576 0
575 -579 0
-575 579 576 0
-576 64 0
-576 618 0
576 -618 -64 0
579 -580 0
579 -583 0
-579 583 580 0
-580 43 0
-580 618 0
580 -618 -43 0
583 -584 0
583 -587 0
-583 587 584 0
-584 54 0
-584 618 0
584 -618 -54 0
587 -588 0
587 -590 0
-587 590 588 0
-588 45 0
-588 618 0
588 -618 -45 0
590 -591 0
590 -594 0
-590 594 591 0
-591 66 0
-591 618 0
591 -618 -66 0
594 -595 0
594 -598 0
-594 598 595 0
-595 47 0
-595 618 0
595 -618 -47 0
598 -599 0
598 -602 0
-598 602 599 0
-599 68 0
-599 618 0
599 -618 -68 0
602 -603 0
602 -606 0
-602 606 603 0
-603 48 0
-603 618 0
603 -618 -48 0
606 -607 0
606 -610 0
-606 610 607 0
-607 70 0
-607 618 0
607 -618 -70 0
610 -611 0
610 -613 0
-610 613 611 0
-611 72 0
-611 618 0
611 -618 -72 0
613 -614 0
613 -617 0
-613 617 614 0
-614 74 0
-614 618 0
614 -618 -74 0
-617 75 0
-617 618 0
617 -618 -75 0
